data/MCDM/NO_CORR/GEN_FROM_60/18_ITEMS_1000_GEN/K5018W01.KNP.mps
NAME          BLANK   
ROWS
 N  OBJROW
 L  R0000000
COLUMNS
    C0000000  OBJROW     -529.         R0000000  414.        
    C0000001  OBJROW     -730.         R0000000  375.        
    C0000002  OBJROW     -683.         R0000000  544.        
    C0000003  OBJROW     -99.          R0000000  979.        
    C0000004  OBJROW     -849.         R0000000  389.        
    C0000005  OBJROW     -985.         R0000000  86.         
    C0000006  OBJROW     -114.         R0000000  541.        
    C0000007  OBJROW     -239.         R0000000  878.        
    C0000008  OBJROW     -629.         R0000000  512.        
    C0000009  OBJROW     -441.         R0000000  341.        
    C0000010  OBJROW     -481.         R0000000  264.        
    C0000011  OBJROW     -403.         R0000000  200.        
    C0000012  OBJROW     -307.         R0000000  400.        
    C0000013  OBJROW     -396.         R0000000  60.         
    C0000014  OBJROW     -692.         R0000000  620.        
    C0000015  OBJROW     -315.         R0000000  558.        
    C0000016  OBJROW     -764.         R0000000  782.        
    C0000017  OBJROW     -278.         R0000000  133.        
RHS
    RHS       R0000000  14156.      
BOUNDS
 BV BOUND     C0000000  1.          
 BV BOUND     C0000001  1.          
 BV BOUND     C0000002  1.          
 BV BOUND     C0000003  1.          
 BV BOUND     C0000004  1.          
 BV BOUND     C0000005  1.          
 BV BOUND     C0000006  1.          
 BV BOUND     C0000007  1.          
 BV BOUND     C0000008  1.          
 BV BOUND     C0000009  1.          
 BV BOUND     C0000010  1.          
 BV BOUND     C0000011  1.          
 BV BOUND     C0000012  1.          
 BV BOUND     C0000013  1.          
 BV BOUND     C0000014  1.          
 BV BOUND     C0000015  1.          
 BV BOUND     C0000016  1.          
 BV BOUND     C0000017  1.          
ENDATA
