interdiction/MCDM/NO_CORR/GEN_FROM_60/18_ITEMS_1000_GEN/K5018W01.KNP.txt
N 18
M 19
LC 18
LC 19
LC 20
LC 21
LC 22
LC 23
LC 24
LC 25
LC 26
LC 27
LC 28
LC 29
LC 30
LC 31
LC 32
LC 33
LC 34
LC 35
LR 1
LR 2
LR 3
LR 4
LR 5
LR 6
LR 7
LR 8
LR 9
LR 10
LR 11
LR 12
LR 13
LR 14
LR 15
LR 16
LR 17
LR 18
LR 19
LO -529
LO -730
LO -683
LO -99
LO -849
LO -985
LO -114
LO -239
LO -629
LO -441
LO -481
LO -403
LO -307
LO -396
LO -692
LO -315
LO -764
LO -278
OS 1
IC 635
IC 837
IC 216
IC 353
IC 442
IC 289
IC 578
IC 991
IC 215
IC 88
IC 204
IC 54
IC 920
IC 303
IC 199
IC 373
IC 662
IC 803
IB 4081
